c NETGEN flow network generator (C version)
c  Problem 4 input parameters
c  ---------------------------
c   Random seed:            13502460
c   Number of nodes:              80
c   Source nodes:                 50
c   Sink nodes:                   30
c   Number of arcs:              130
c   Minimum arc cost:              1
c   Maximum arc cost:             50
c   Total supply:                250
c   Transshipment -
c     Sources:                     0
c     Sinks:                       0
c   Skeleton arcs -
c     With max cost:               0%
c     Capacitated:                 0%
c   Minimum arc capacity:          0
c   Maximum arc capacity:          0
c
c  *** Minimum cost flow ***
c
p min 80 134
n 1 1
n 2 5
n 3 8
n 4 8
n 5 6
n 6 7
n 7 7
n 8 5
n 9 6
n 10 5
n 11 11
n 12 5
n 13 3
n 14 2
n 15 4
n 16 1
n 17 4
n 18 4
n 19 5
n 20 2
n 21 5
n 22 5
n 23 13
n 24 5
n 25 3
n 26 1
n 27 6
n 28 5
n 29 9
n 30 8
n 31 6
n 32 10
n 33 3
n 34 1
n 35 5
n 36 2
n 37 1
n 38 7
n 39 3
n 40 5
n 41 3
n 42 9
n 43 6
n 44 2
n 45 5
n 46 7
n 47 4
n 48 2
n 49 3
n 50 7
n 51 -9
n 52 -8
n 53 -5
n 54 -12
n 55 -1
n 56 -12
n 57 -1
n 58 -20
n 59 -12
n 60 -3
n 61 -9
n 62 -9
n 63 -1
n 64 -16
n 65 -7
n 66 -3
n 67 -17
n 68 -8
n 69 -1
n 70 -4
n 71 -5
n 72 -10
n 73 -1
n 74 -10
n 75 -6
n 76 -23
n 77 -12
n 78 -1
n 79 -15
n 80 -9
a 1 76 0 250 34
a 1 54 0 250 7
a 1 74 0 250 7
a 2 65 0 250 13
a 2 53 0 250 50
a 2 60 0 250 50
a 2 61 0 250 14
a 3 62 0 250 30
a 3 52 0 250 30
a 3 61 0 250 32
a 3 66 0 250 50
a 4 64 0 250 34
a 4 68 0 250 37
a 4 76 0 250 13
a 4 51 0 250 13
a 5 64 0 250 27
a 5 51 0 250 23
a 5 78 0 250 50
a 6 72 0 250 10
a 6 54 0 250 15
a 6 51 0 250 19
a 7 58 0 250 48
a 7 56 0 250 24
a 7 79 0 250 22
a 8 74 0 250 7
a 8 68 0 250 49
a 8 51 0 250 4
a 9 67 0 250 23
a 9 71 0 250 22
a 9 79 0 250 18
a 10 67 0 250 20
a 10 65 0 250 15
a 10 77 0 250 1
a 10 61 0 250 18
a 11 58 0 250 44
a 11 77 0 250 37
a 11 55 0 250 41
a 11 63 0 250 49
a 12 72 0 250 2
a 12 51 0 250 33
a 12 54 0 250 26
a 13 53 0 250 16
a 13 58 0 250 42
a 13 69 0 250 3
a 13 68 0 250 27
a 14 66 0 250 19
a 14 56 0 250 26
a 14 60 0 250 9
a 15 52 0 250 18
a 15 76 0 250 9
a 15 55 0 250 36
a 16 75 0 250 31
a 16 65 0 250 14
a 16 79 0 250 4
a 17 56 0 250 37
a 17 80 0 250 18
a 17 63 0 250 12
a 17 72 0 250 38
a 18 79 0 250 28
a 18 77 0 250 11
a 18 51 0 250 33
a 18 61 0 250 22
a 19 56 0 250 5
a 19 61 0 250 46
a 19 72 0 250 24
a 20 60 0 250 39
a 20 67 0 250 15
a 20 74 0 250 35
a 21 72 0 250 27
a 21 75 0 250 14
a 21 59 0 250 18
a 21 62 0 250 48
a 22 72 0 250 19
a 22 65 0 250 39
a 23 79 0 250 17
a 23 54 0 250 23
a 24 76 0 250 43
a 24 53 0 250 7
a 25 64 0 250 37
a 25 80 0 250 25
a 26 54 0 250 45
a 26 74 0 250 25
a 27 62 0 250 38
a 27 76 0 250 35
a 28 56 0 250 4
a 28 70 0 250 33
a 29 76 0 250 37
a 29 80 0 250 3
a 30 67 0 250 10
a 30 59 0 250 44
a 31 52 0 250 21
a 31 59 0 250 22
a 32 58 0 250 6
a 32 76 0 250 6
a 33 74 0 250 27
a 33 61 0 250 33
a 34 73 0 250 13
a 34 59 0 250 25
a 35 77 0 250 48
a 35 58 0 250 39
a 36 51 0 250 38
a 36 61 0 250 1
a 37 62 0 250 27
a 37 59 0 250 30
a 38 76 0 250 32
a 38 74 0 250 3
a 39 67 0 250 34
a 39 75 0 250 33
a 40 67 0 250 27
a 40 75 0 250 48
a 41 66 0 250 44
a 41 71 0 250 5
a 42 59 0 250 44
a 42 79 0 250 45
a 43 64 0 250 32
a 43 51 0 250 4
a 44 56 0 250 18
a 44 62 0 250 10
a 45 71 0 250 6
a 45 60 0 250 7
a 46 61 0 250 11
a 46 58 0 250 35
a 47 68 0 250 4
a 47 64 0 250 27
a 48 68 0 250 5
a 48 58 0 250 39
a 49 80 0 250 33
a 49 63 0 250 6
a 50 70 0 250 36
a 50 76 0 250 22
a 50 55 0 250 34
a 50 57 0 250 26
a 50 69 0 250 23
a 50 78 0 250 12
